experiment/data/lkh-res/Vrp-Set-P-n50/Vrp-Set-P-n50-lkh/0.lkh1.log
PARAMETER_FILE = baseline_results/cvrp_lkh/Vrp-Set-P-n50/Vrp-Set-P-n50-lkh/0.lkh1.par
Reading PROBLEM_FILE: "baseline_results/cvrp_lkh/Vrp-Set-P-n50/Vrp-Set-P-n50-lkh/0.lkh1.vrp" ... done
ASCENT_CANDIDATES = 49
BACKBONE_TRIALS = 0
BACKTRACKING = NO
# BWTSP =
# CANDIDATE_FILE =
CANDIDATE_SET_TYPE = ALPHA
# DISTANCE =
DEPOT = 1
# EDGE_FILE =
EXCESS = 0.02
EXTERNAL_SALESMEN = 0
EXTRA_CANDIDATES = 0 
EXTRA_CANDIDATE_SET_TYPE = QUADRANT
GAIN23 = NO
GAIN_CRITERION = YES
INITIAL_PERIOD = 100
INITIAL_STEP_SIZE = 1
INITIAL_TOUR_ALGORITHM = WALK
# INITIAL_TOUR_FILE = 
INITIAL_TOUR_FRACTION = 1.000
# INPUT_TOUR_FILE = 
KICK_TYPE = 4
KICKS = 1
# MAX_BREADTH =
MAKESPAN = NO
MAX_CANDIDATES = 5 
MAX_SWAPS = 0
MAX_TRIALS = 10000
# MERGE_TOUR_FILE =
MOVE_TYPE = 5 SPECIAL
MTSP_MIN_SIZE = 1
MTSP_MAX_SIZE = 49
# MTSP_SOLUTION_FILE = 
# NONSEQUENTIAL_MOVE_TYPE = 5
# OPTIMUM =
OUTPUT_TOUR_FILE = baseline_results/cvrp_lkh/Vrp-Set-P-n50/Vrp-Set-P-n50-lkh/0.lkh1.tour
PATCHING_A = 1 
PATCHING_C = 0 
# PI_FILE = 
POPMUSIC_INITIAL_TOUR = NO
POPMUSIC_MAX_NEIGHBORS = 5
POPMUSIC_SAMPLE_SIZE = 10
POPMUSIC_SOLUTIONS = 50
POPMUSIC_TRIALS = 1
POPULATION_SIZE = 10
PRECISION = 100
PROBLEM_FILE = baseline_results/cvrp_lkh/Vrp-Set-P-n50/Vrp-Set-P-n50-lkh/0.lkh1.vrp
RECOMBINATION = IPT
RESTRICTED_SEARCH = YES
RUNS = 1
SALESMEN = 10
SCALE = 1
SEED = 1234
# SINTEF_SOLUTION_FILE = 
STOP_AT_OPTIMUM = YES
SUBGRADIENT = YES
# SUBPROBLEM_SIZE =
# SUBPROBLEM_TOUR_FILE = 
SUBSEQUENT_MOVE_TYPE = 5 SPECIAL
SUBSEQUENT_PATCHING = YES
# TIME_LIMIT =
# TOTAL_TIME_LIMIT =
# TOUR_FILE = 
TRACE_LEVEL = 1
VEHICLES = 10

Lower bound = 52889.0, Ascent time = 0.01 sec.
Cand.min = 5, Cand.avg = 5.0, Cand.max = 5
Preprocessing time = 0.01 sec.
* 1: Cost = 0_78331, Time = 0.01 sec. 
Writing OUTPUT_TOUR_FILE: "baseline_results/cvrp_lkh/Vrp-Set-P-n50/Vrp-Set-P-n50-lkh/0.lkh1.tour" ... done
* 2: Cost = 0_76032, Time = 0.01 sec. 
Writing OUTPUT_TOUR_FILE: "baseline_results/cvrp_lkh/Vrp-Set-P-n50/Vrp-Set-P-n50-lkh/0.lkh1.tour" ... done
* 6: Cost = 0_75810, Time = 0.04 sec. 
Writing OUTPUT_TOUR_FILE: "baseline_results/cvrp_lkh/Vrp-Set-P-n50/Vrp-Set-P-n50-lkh/0.lkh1.tour" ... done
* 7: Cost = 0_72904, Time = 0.04 sec. 
Writing OUTPUT_TOUR_FILE: "baseline_results/cvrp_lkh/Vrp-Set-P-n50/Vrp-Set-P-n50-lkh/0.lkh1.tour" ... done
* 12: Cost = 0_72886, Time = 0.07 sec. 
Writing OUTPUT_TOUR_FILE: "baseline_results/cvrp_lkh/Vrp-Set-P-n50/Vrp-Set-P-n50-lkh/0.lkh1.tour" ... done
* 20: Cost = 0_72230, Time = 0.10 sec. 
Writing OUTPUT_TOUR_FILE: "baseline_results/cvrp_lkh/Vrp-Set-P-n50/Vrp-Set-P-n50-lkh/0.lkh1.tour" ... done
* 48: Cost = 0_71904, Time = 0.24 sec. 
Writing OUTPUT_TOUR_FILE: "baseline_results/cvrp_lkh/Vrp-Set-P-n50/Vrp-Set-P-n50-lkh/0.lkh1.tour" ... done
* 57: Cost = 0_71440, Time = 0.29 sec. 
Writing OUTPUT_TOUR_FILE: "baseline_results/cvrp_lkh/Vrp-Set-P-n50/Vrp-Set-P-n50-lkh/0.lkh1.tour" ... done
* 255: Cost = 0_71370, Time = 1.33 sec. 
Writing OUTPUT_TOUR_FILE: "baseline_results/cvrp_lkh/Vrp-Set-P-n50/Vrp-Set-P-n50-lkh/0.lkh1.tour" ... done
* 283: Cost = 0_71313, Time = 1.54 sec. 
Writing OUTPUT_TOUR_FILE: "baseline_results/cvrp_lkh/Vrp-Set-P-n50/Vrp-Set-P-n50-lkh/0.lkh1.tour" ... done
* 289: Cost = 0_71218, Time = 1.55 sec. 
Writing OUTPUT_TOUR_FILE: "baseline_results/cvrp_lkh/Vrp-Set-P-n50/Vrp-Set-P-n50-lkh/0.lkh1.tour" ... done
* 311: Cost = 0_70889, Time = 1.65 sec. 
Writing OUTPUT_TOUR_FILE: "baseline_results/cvrp_lkh/Vrp-Set-P-n50/Vrp-Set-P-n50-lkh/0.lkh1.tour" ... done
* 331: Cost = 0_70794, Time = 1.76 sec. 
Writing OUTPUT_TOUR_FILE: "baseline_results/cvrp_lkh/Vrp-Set-P-n50/Vrp-Set-P-n50-lkh/0.lkh1.tour" ... done
* 364: Cost = 0_70729, Time = 1.89 sec. 
Writing OUTPUT_TOUR_FILE: "baseline_results/cvrp_lkh/Vrp-Set-P-n50/Vrp-Set-P-n50-lkh/0.lkh1.tour" ... done
* 415: Cost = 0_70686, Time = 2.15 sec. 
Writing OUTPUT_TOUR_FILE: "baseline_results/cvrp_lkh/Vrp-Set-P-n50/Vrp-Set-P-n50-lkh/0.lkh1.tour" ... done
* 691: Cost = 0_70418, Time = 3.48 sec. 
Writing OUTPUT_TOUR_FILE: "baseline_results/cvrp_lkh/Vrp-Set-P-n50/Vrp-Set-P-n50-lkh/0.lkh1.tour" ... done
* 4127: Cost = 0_70120, Time = 16.52 sec. 
Writing OUTPUT_TOUR_FILE: "baseline_results/cvrp_lkh/Vrp-Set-P-n50/Vrp-Set-P-n50-lkh/0.lkh1.tour" ... done
* 4819: Cost = 0_70065, Time = 19.03 sec. 
Writing OUTPUT_TOUR_FILE: "baseline_results/cvrp_lkh/Vrp-Set-P-n50/Vrp-Set-P-n50-lkh/0.lkh1.tour" ... done
Population:
  1: 0_70065
Run 1: Cost = 0_70065, Time = 41.49 sec. 

Successes/Runs = 0/1 
Cost.min = 70065, Cost.avg = 70065.00, Cost.max = 70065
Gap.min = 0.0000%, Gap.avg = 0.0000%, Gap.max = 0.0000%
Penalty.min = 0, Penalty.avg = 0.00, Penalty.max = 0
Trials.min = 10000, Trials.avg = 10000.0, Trials.max = 10000
Time.min = 41.49 sec., Time.avg = 41.49 sec., Time.max = 41.49 sec.
Time.total = 41.50 sec.
  Size.min = 4, Size.max = 7, Penalty = 0
  Cost.min = 4849, Cost.max = 9760, Cost.sum = 70065
Best CVRP solution:
  Cost = 0_70065

