experiment/data/lkh-res/Vrp-Set-P-n50/Vrp-Set-P-n50-lkh/0.lkh1.tour
NAME : 0.70065.tour
COMMENT : Length = 70065
COMMENT : Found by LKH-3 [Keld Helsgaun] Tue Apr  9 02:37:47 2024
TYPE : TOUR
DIMENSION : 59
TOUR_SECTION
1
2
23
43
42
44
24
17
52
18
45
33
41
57
49
48
22
29
58
8
12
39
27
59
36
15
20
9
47
54
35
14
28
46
5
51
11
32
40
13
56
16
21
38
37
6
30
53
7
34
3
31
55
10
26
19
25
50
4
-1
EOF
